c t wmc
c file mc2023_track2_181.cnf
p cnf 100 300
-3 74 -94 0
-36 -69 -3 0
9 -87 -64 0
27 -57 -91 0
-68 -19 31 0
9 -13 -83 0
-20 -9 -70 0
37 -89 74 0
-57 -13 -93 0
-62 -76 -55 0
75 34 90 0
-6 -44 -72 0
-67 -57 51 0
-67 -48 62 0
53 -63 30 0
-16 87 -79 0
-20 44 72 0
33 29 65 0
-53 9 -39 0
68 4 -78 0
58 90 -19 0
35 -92 -17 0
-1 69 30 0
55 -86 -9 0
71 -25 -33 0
-50 35 -37 0
30 -90 53 0
-62 61 52 0
54 -28 -78 0
97 34 35 0
10 50 -78 0
-5 17 -56 0
-5 39 -70 0
19 -50 17 0
99 -15 20 0
-49 50 58 0
95 -86 -84 0
-92 -11 29 0
49 -32 -70 0
70 51 88 0
-56 7 24 0
-12 -20 85 0
30 -56 -49 0
23 -96 -91 0
-3 67 30 0
-28 52 -50 0
34 -59 29 0
71 85 -75 0
96 52 30 0
-6 26 -32 0
-52 3 37 0
17 -64 -79 0
59 -6 18 0
46 -41 98 0
18 51 30 0
-43 -98 -33 0
51 -37 76 0
-89 39 -70 0
10 -24 15 0
-20 -41 74 0
-36 94 35 0
36 -64 24 0
33 65 -43 0
41 -49 -62 0
-83 3 28 0
17 -62 81 0
-52 77 -55 0
11 15 -39 0
29 -84 28 0
-95 45 36 0
100 88 -26 0
-45 -36 65 0
37 100 80 0
94 -67 -6 0
-80 81 21 0
-90 -33 43 0
7 23 9 0
-90 47 -44 0
-96 66 -69 0
-3 20 62 0
-53 76 -31 0
-47 -7 41 0
-74 52 88 0
24 81 -33 0
-57 10 32 0
58 -50 37 0
-47 4 18 0
-57 24 -22 0
13 10 7 0
-54 5 65 0
85 -50 31 0
59 73 14 0
40 26 79 0
-67 -96 -14 0
-90 -16 91 0
76 9 -10 0
93 23 -84 0
20 -15 -24 0
11 74 91 0
48 -19 -63 0
50 96 40 0
54 -73 -63 0
3 -29 -42 0
-60 -96 59 0
-96 43 26 0
-57 -86 8 0
-32 91 -33 0
-86 33 9 0
37 -20 1 0
-72 -47 62 0
59 41 93 0
-59 -33 -56 0
6 -17 36 0
53 -19 51 0
-14 6 -46 0
54 25 59 0
48 -14 37 0
46 71 -54 0
-47 -39 -38 0
73 38 -25 0
-33 -63 13 0
85 -36 -42 0
-22 -91 18 0
17 12 -46 0
-11 95 6 0
38 -89 11 0
17 51 25 0
57 -46 -67 0
-70 19 77 0
81 -29 72 0
65 22 41 0
-24 16 -43 0
78 -97 46 0
38 13 52 0
26 95 -87 0
-46 37 98 0
27 -74 -76 0
41 -78 33 0
-44 49 94 0
-12 51 -78 0
-29 18 54 0
-73 -36 51 0
-18 -16 32 0
-25 39 79 0
9 76 10 0
-8 -95 15 0
100 -71 -82 0
22 -91 80 0
-19 28 -30 0
50 -99 75 0
-4 -58 29 0
9 -15 51 0
14 51 4 0
96 81 71 0
-56 -67 -61 0
-22 94 -44 0
53 49 -45 0
-53 -99 -69 0
-62 -66 8 0
-24 -1 -59 0
-35 -90 57 0
92 100 22 0
-46 17 -22 0
-45 -4 50 0
-3 81 -5 0
-82 -26 -15 0
-9 -90 89 0
-32 23 48 0
-41 -26 -95 0
-2 -43 41 0
-3 44 15 0
-63 99 14 0
-54 14 -62 0
-32 84 -49 0
7 51 -14 0
-76 -70 16 0
38 21 49 0
68 -42 -16 0
32 77 -82 0
39 -90 -69 0
-76 28 -93 0
-15 -93 -76 0
-37 32 14 0
72 -24 99 0
58 -64 -31 0
94 14 87 0
52 81 8 0
28 -3 50 0
-57 74 12 0
-60 -20 -7 0
16 -49 11 0
97 -4 -76 0
37 1 29 0
59 68 71 0
-29 -15 17 0
-92 -44 62 0
59 28 -16 0
6 52 1 0
50 -97 76 0
-63 -66 -50 0
11 -24 69 0
-64 6 -27 0
-37 -95 38 0
18 -38 -99 0
45 65 -29 0
-52 -90 -13 0
-53 -37 48 0
54 -45 -80 0
100 83 2 0
59 23 -9 0
64 -50 -16 0
-80 11 85 0
-70 -49 4 0
-36 40 54 0
-47 -29 37 0
58 -95 57 0
-86 -45 -83 0
100 -44 -24 0
-62 8 11 0
-88 -47 38 0
59 -88 60 0
36 -65 24 0
71 -2 48 0
94 71 82 0
-33 4 52 0
-93 15 -83 0
-84 87 60 0
-45 19 7 0
-34 38 -50 0
-87 93 12 0
61 -57 -93 0
38 47 92 0
-39 -17 12 0
59 -1 24 0
-78 30 93 0
99 -8 -53 0
94 -43 -36 0
-50 46 -3 0
-44 -63 24 0
34 -54 11 0
69 100 -77 0
54 82 -91 0
-65 -95 -92 0
85 23 16 0
-39 3 -50 0
-1 -16 53 0
65 -2 100 0
56 98 7 0
4 41 -56 0
-5 -67 50 0
26 -79 60 0
-17 -56 10 0
-70 -9 -41 0
71 33 -45 0
36 -76 98 0
-43 -53 12 0
-98 12 -38 0
62 89 46 0
97 37 -43 0
4 -63 76 0
38 56 35 0
-24 -82 -69 0
-43 100 78 0
54 62 -80 0
-99 -38 -78 0
-39 30 -90 0
86 -33 34 0
15 -39 10 0
-67 49 -55 0
-18 79 -91 0
-14 11 -25 0
-97 -83 -76 0
54 12 -43 0
-83 51 5 0
-82 -35 -99 0
99 34 21 0
-68 88 -50 0
68 86 -53 0
96 31 -99 0
11 -44 96 0
68 -48 59 0
-84 -60 -69 0
56 37 34 0
-59 91 -42 0
26 73 62 0
-70 -64 60 0
85 31 83 0
-72 61 -83 0
95 -49 -44 0
-69 -65 51 0
-86 -82 -54 0
61 -85 -43 0
-63 94 -36 0
81 97 -22 0
91 71 38 0
-85 58 -97 0
66 -78 -93 0
62 -67 99 0
52 -86 32 0
54 -44 -7 0
c p weight 12 0.37656825 0
c p weight -12 0.62343175 0
c p weight 67 0.49675923 0
c p weight -67 0.50324077 0
c p weight 1 1 0
c p weight -1 1 0
c p weight 2 1 0
c p weight -2 1 0
c p weight 3 1 0
c p weight -3 1 0
c p weight 4 1 0
c p weight -4 1 0
c p weight 5 1 0
c p weight -5 1 0
c p weight 6 1 0
c p weight -6 1 0
c p weight 7 1 0
c p weight -7 1 0
c p weight 8 1 0
c p weight -8 1 0
c p weight 9 1 0
c p weight -9 1 0
c p weight 10 1 0
c p weight -10 1 0
c p weight 11 1 0
c p weight -11 1 0
c p weight 13 1 0
c p weight -13 1 0
c p weight 14 1 0
c p weight -14 1 0
c p weight 15 1 0
c p weight -15 1 0
c p weight 16 1 0
c p weight -16 1 0
c p weight 17 1 0
c p weight -17 1 0
c p weight 18 1 0
c p weight -18 1 0
c p weight 19 1 0
c p weight -19 1 0
c p weight 20 1 0
c p weight -20 1 0
c p weight 21 1 0
c p weight -21 1 0
c p weight 22 1 0
c p weight -22 1 0
c p weight 23 1 0
c p weight -23 1 0
c p weight 24 1 0
c p weight -24 1 0
c p weight 25 1 0
c p weight -25 1 0
c p weight 26 1 0
c p weight -26 1 0
c p weight 27 1 0
c p weight -27 1 0
c p weight 28 1 0
c p weight -28 1 0
c p weight 29 1 0
c p weight -29 1 0
c p weight 30 1 0
c p weight -30 1 0
c p weight 31 1 0
c p weight -31 1 0
c p weight 32 1 0
c p weight -32 1 0
c p weight 33 1 0
c p weight -33 1 0
c p weight 34 1 0
c p weight -34 1 0
c p weight 35 1 0
c p weight -35 1 0
c p weight 36 1 0
c p weight -36 1 0
c p weight 37 1 0
c p weight -37 1 0
c p weight 38 1 0
c p weight -38 1 0
c p weight 39 1 0
c p weight -39 1 0
c p weight 40 1 0
c p weight -40 1 0
c p weight 41 1 0
c p weight -41 1 0
c p weight 42 1 0
c p weight -42 1 0
c p weight 43 1 0
c p weight -43 1 0
c p weight 44 1 0
c p weight -44 1 0
c p weight 45 1 0
c p weight -45 1 0
c p weight 46 1 0
c p weight -46 1 0
c p weight 47 1 0
c p weight -47 1 0
c p weight 48 1 0
c p weight -48 1 0
c p weight 49 1 0
c p weight -49 1 0
c p weight 50 1 0
c p weight -50 1 0
c p weight 51 1 0
c p weight -51 1 0
c p weight 52 1 0
c p weight -52 1 0
c p weight 53 1 0
c p weight -53 1 0
c p weight 54 1 0
c p weight -54 1 0
c p weight 55 1 0
c p weight -55 1 0
c p weight 56 1 0
c p weight -56 1 0
c p weight 57 1 0
c p weight -57 1 0
c p weight 58 1 0
c p weight -58 1 0
c p weight 59 1 0
c p weight -59 1 0
c p weight 60 1 0
c p weight -60 1 0
c p weight 61 1 0
c p weight -61 1 0
c p weight 62 1 0
c p weight -62 1 0
c p weight 63 1 0
c p weight -63 1 0
c p weight 64 1 0
c p weight -64 1 0
c p weight 65 1 0
c p weight -65 1 0
c p weight 66 1 0
c p weight -66 1 0
c p weight 68 1 0
c p weight -68 1 0
c p weight 69 1 0
c p weight -69 1 0
c p weight 70 1 0
c p weight -70 1 0
c p weight 71 1 0
c p weight -71 1 0
c p weight 72 1 0
c p weight -72 1 0
c p weight 73 1 0
c p weight -73 1 0
c p weight 74 1 0
c p weight -74 1 0
c p weight 75 1 0
c p weight -75 1 0
c p weight 76 1 0
c p weight -76 1 0
c p weight 77 1 0
c p weight -77 1 0
c p weight 78 1 0
c p weight -78 1 0
c p weight 79 1 0
c p weight -79 1 0
c p weight 80 1 0
c p weight -80 1 0
c p weight 81 1 0
c p weight -81 1 0
c p weight 82 1 0
c p weight -82 1 0
c p weight 83 1 0
c p weight -83 1 0
c p weight 84 1 0
c p weight -84 1 0
c p weight 85 1 0
c p weight -85 1 0
c p weight 86 1 0
c p weight -86 1 0
c p weight 87 1 0
c p weight -87 1 0
c p weight 88 1 0
c p weight -88 1 0
c p weight 89 1 0
c p weight -89 1 0
c p weight 90 1 0
c p weight -90 1 0
c p weight 91 1 0
c p weight -91 1 0
c p weight 92 1 0
c p weight -92 1 0
c p weight 93 1 0
c p weight -93 1 0
c p weight 94 1 0
c p weight -94 1 0
c p weight 95 1 0
c p weight -95 1 0
c p weight 96 1 0
c p weight -96 1 0
c p weight 97 1 0
c p weight -97 1 0
c p weight 98 1 0
c p weight -98 1 0
c p weight 99 1 0
c p weight -99 1 0
c p weight 100 1 0
c p weight -100 1 0
